coords = array2d(1..28, 1..2, [451, 559, 83, 907, 849, 263, 119, 496, 388, 355,
    270, 221, 427, 31, 637, 875, 712, 517, 379, 460, 591, 623, 169,
    527, 403, 726, 101, 156, 608, 479, 138, 921, 542, 11, 923, 133,
    809, 862, 202, 448, 895, 785, 302, 841, 484, 511, 418, 100, 844,
    899, 576, 668, 191, 596, 874, 891]);

n = 28;

